[2026-03-24T12:15:46.044Z] Pipeline "set_big_5_8_big_5_8_s004_g001" → 2026_03_24_12_15_45_set_big_5_8_big_5_8_s004_g001_max.sol
Set parameter WLSAccessID
Set parameter WLSSecret
Set parameter LicenseID to value 2792458
Set parameter LogFile to value "gurobi.log"
Using license file /root/gurobi.lic
Academic license 2792458 - for non-commercial use only - registered to an___@studenti.unipg.it

Gurobi Optimizer version 13.0.1 build v13.0.1rc0 (linux64 - "Ubuntu 24.04.4 LTS")
Copyright (c) 2026, Gurobi Optimization, LLC

Warning: Duplicate section found (read 'binary') - Is a variable name equal to an LP file format keyword?
Warning: Duplicate section found (read 'binary') - Is a variable name equal to an LP file format keyword?
Warning: Duplicate section found (read 'binary') - Is a variable name equal to an LP file format keyword?
Warning: Duplicate section found (read 'binary') - Is a variable name equal to an LP file format keyword?
Warning: Duplicate section found (read 'binary') - Is a variable name equal to an LP file format keyword?
Warning: Duplicate section found (read 'binary') - Is a variable name equal to an LP file format keyword?
Warning: Duplicate section found (read 'binary') - Is a variable name equal to an LP file format keyword?
Warning: Duplicate section found (read 'binary') - Is a variable name equal to an LP file format keyword?
Warning: Duplicate section found (read 'binary') - Is a variable name equal to an LP file format keyword?
Warning: Duplicate section found (read 'binary') - Is a variable name equal to an LP file format keyword?
Warning: Further warnings of this type will be omitted.
Read LP format model from file /root/bgw/data/uploads/2026_03_24_12_15_45_set_big_5_8_big_5_8_s004_g001_max.lp
Reading time = 0.01 seconds
: 7210 rows, 525 columns, 21937 nonzeros

Using Gurobi shared library /opt/gurobi1301/linux64/lib/libgurobi.so.13.0.1

CPU model: AMD EPYC-Genoa Processor, instruction set [SSE2|AVX|AVX2|AVX512]
Thread count: 16 physical cores, 16 logical processors, using up to 16 threads

Academic license 2792458 - for non-commercial use only - registered to an___@studenti.unipg.it
Optimize a model with 7210 rows, 525 columns and 21937 nonzeros (Max)
Model fingerprint: 0xa3a48753
Model has 58 linear objective coefficients
Variable types: 86 continuous, 439 integer (439 binary)
Coefficient statistics:
  Matrix range     [1e+00, 3e+01]
  Objective range  [1e+00, 1e+00]
  Bounds range     [1e+00, 1e+00]
  RHS range        [1e+00, 3e+01]

Found heuristic solution: objective 58.0000000
Presolve removed 601 rows and 114 columns
Presolve time: 0.02s
Presolved: 6609 rows, 411 columns, 20052 nonzeros
Variable types: 0 continuous, 411 integer (402 binary)
Found heuristic solution: objective 79.0000000

Root relaxation: objective 3.530000e+02, 497 iterations, 0.03 seconds (0.05 work units)

    Nodes    |    Current Node    |     Objective Bounds      |     Work
 Expl Unexpl |  Obj  Depth IntInf | Incumbent    BestBd   Gap | It/Node Time

     0     0  353.00000    0   56   79.00000  353.00000   347%     -    0s
H    0     0                      95.0000000  353.00000   272%     -    0s
H    0     0                     138.0000000  353.00000   156%     -    0s
     0     0  353.00000    0   56  138.00000  353.00000   156%     -    0s
     0     0  353.00000    0   56  138.00000  353.00000   156%     -    0s
H    0     0                     139.0000000  353.00000   154%     -    0s
     0     0  353.00000    0   60  139.00000  353.00000   154%     -    0s
     0     0  353.00000    0   42  139.00000  353.00000   154%     -    0s
H    0     0                     140.0000000  353.00000   152%     -    0s
H    0     0                     154.0000000  353.00000   129%     -    0s
     0     0  353.00000    0   42  154.00000  353.00000   129%     -    0s
     0     0  353.00000    0   32  154.00000  353.00000   129%     -    0s
     0     0  353.00000    0   56  154.00000  353.00000   129%     -    0s
     0     0  353.00000    0   49  154.00000  353.00000   129%     -    0s
H    0     0                     155.0000000  353.00000   128%     -    0s
     0     0  353.00000    0   48  155.00000  353.00000   128%     -    0s
     0     0  353.00000    0   42  155.00000  353.00000   128%     -    0s
     0     0  353.00000    0   41  155.00000  353.00000   128%     -    0s
     0     0  353.00000    0   41  155.00000  353.00000   128%     -    0s
H    0     0                     160.0000000  353.00000   121%     -    0s
     0     0  353.00000    0   41  160.00000  353.00000   121%     -    0s
     0     0  353.00000    0   42  160.00000  353.00000   121%     -    0s
     0     0  353.00000    0   42  160.00000  353.00000   121%     -    0s
     0     0  353.00000    0   42  160.00000  353.00000   121%     -    0s
     0     0  353.00000    0   41  160.00000  353.00000   121%     -    0s
     0     0  353.00000    0   41  160.00000  353.00000   121%     -    0s
     0     0  353.00000    0   41  160.00000  353.00000   121%     -    0s
     0     2  353.00000    0   40  160.00000  353.00000   121%     -    0s
  3426  1614  282.25641   15   51  160.00000  333.80068   109%   126    5s
 10507  1996  187.80769   27  203  160.00000  247.75000  54.8%   102   10s
 23642  2438  176.48718   29  122  160.00000  206.00000  28.7%  97.0   15s
 37149   127  162.80769   32   40  160.00000  175.34615  9.59%  99.2   20s

Cutting planes:
  Inf proof: 2

Explored 38475 nodes (3845502 simplex iterations) in 20.59 seconds (49.16 work units)
Thread count was 16 (of 16 available processors)

Solution count 10: 160 160 160 ... 95

Optimal solution found (tolerance 1.00e-04)
Best objective 1.600000000000e+02, best bound 1.600000000000e+02, gap 0.0000%

Wrote result file '/root/bgw/data/results/2026_03_24_12_15_45_set_big_5_8_big_5_8_s004_g001_max.sol'

